UNSATISFIABLE

Models       : 0     
Calls        : 1
Time         : 0.061s (Solving: 0.00s 1st Model: 0.00s Unsat: 0.00s)
CPU Time     : 0.050s

4 ORBITS:
Answer: 12
sat_memory(3,0,0) sat_energy(3,0,300) sat_memory(4,0,0) sat_energy(4,0,600) sat_memory(1,0,0) sat_memory(2,0,0) sat_energy(1,0,800) sat_energy(2,0,800) sat_memory(3,1,0) sat_memory(1,1,0) sat_memory(2,1,0) sat_memory(2,2,60) sat_memory(2,3,120) sat_memory(1,4,40) sat_memory(1,5,80) sat_memory(1,6,120) sat_memory(1,7,160) sat_memory(3,8,50) sat_memory(3,9,100) sat_memory(2,10,180) sat_memory(3,11,150) sat_memory(2,12,240) sat_memory(2,13,300) sat_memory(3,15,200) sat_memory(1,16,200) sat_memory(1,17,240) sat_memory(1,18,280) sat_memory(1,19,320) sat_memory(1,20,360) executed(sat_3,6) executed(sat_4,0) executed(sat_1,11) executed(sat_2,6) observed(sat_3,4) observed(sat_4,0) observed(sat_1,9) observed(sat_2,5) downlinked(sat_3,1) downlinked(sat_4,0) downlinked(sat_1,1) downlinked(sat_2,1) action_scheduled(8,3,184,193) action_scheduled(9,3,245,254) action_scheduled(11,3,256,265) action_scheduled(14,3,328,335) action_scheduled(7,1,185,194) action_scheduled(14,1,330,335) action_scheduled(16,1,341,350) action_scheduled(10,2,252,260) action_scheduled(13,2,335,343) quality(435) action_scheduled(3,2,52,60) action_scheduled(5,1,116,125) action_scheduled(15,3,429,438) action_scheduled(17,1,488,497) action_scheduled(19,1,502,511) action_scheduled(2,2,39,47) action_scheduled(4,1,76,85) action_scheduled(6,1,140,149) action_scheduled(12,2,311,319) action_scheduled(18,1,388,397) action_scheduled(20,1,526,535) action_scheduled(1,3,10,16) action_scheduled(1,1,12,17) action_scheduled(1,2,13,19) sat_energy(2,2,719) sat_energy(2,3,672) sat_energy(2,13,775) sat_energy(2,1,753)
Optimization: 90915
OPTIMUM FOUND

Models       : 12    
  Optimum    : yes
Optimization : 90915
Calls        : 1
Time         : 8.021s (Solving: 7.90s 1st Model: 0.00s Unsat: 0.03s)
CPU Time     : 7.980s